HFSDDW
20	6	2
0	3	1	97
0	39	1	46
0	67	1	24
0	22	1	97
0	91	1	59
0	30	1	47
0	19	1	42
0	24	1	31
0	97	1	16
0	88	1	93
0	78	1	98
0	73	1	43
0	55	1	11
0	44	1	72
0	58	1	93
0	30	1	89
0	1	1	30
0	96	1	21
0	3	1	80
0	2	1	25
LBCmax: 374
RELDUE
-1	174	8	5
-1	285	4	9
-1	288	3	4
-1	115	5	8
-1	151	5	1
-1	335	3	2
-1	213	2	6
-1	228	6	1
-1	192	2	7
-1	258	3	6
-1	332	6	9
-1	139	4	9
-1	189	9	2
-1	261	5	4
-1	198	9	9
-1	119	9	1
-1	167	8	5
-1	329	5	8
-1	318	4	8
-1	238	7	7
DDW
164	184
268	302
285	291
110	120
145	157
305	365
192	234
210	246
173	211
248	268
302	362
131	147
174	204
251	271
178	218
108	130
164	170
313	345
315	321
233	243
